water dimer for E8-B: atoms 1-3 = QM region (charges zeroed), atoms 4-6 = MM region (TIP3P), periodic 20 A box. See README.md for anti-double-counting rules.

6 atoms
4 atom types

0.0 20.0 xlo xhi
0.0 20.0 ylo yhi
0.0 20.0 zlo zhi

Masses

1 15.9994
2 1.008
3 15.9994
4 1.008

Atoms

1 1  0.000  10.000000 10.000000 10.117300
2 2  0.000  10.000000 10.757200  9.530800
3 2  0.000  10.000000  9.242800  9.530800
4 3 -0.834  12.900000 10.800000 10.417300
5 4  0.417  12.900000 11.557200  9.830800
6 4  0.417  12.900000 10.042800  9.830800
